# Solution for model Food_Bank
# Objective value = 4.6105057190166460e+06
x_1_172 1
x_1_62 1
x_1_206 1
x_1_210 1
x_1_33 1
x_1_153 0
x_1_102 1
x_1_151 1
x_1_4 1
x_1_162 0
x_1_53 1
x_1_5 1
x_1_6 1
x_1_222 1
x_1_215 1
x_1_165 1
x_1_30 1
x_1_155 1
x_1_207 1
x_1_196 1
x_1_110 1
x_1_140 1
x_1_25 0
y_172_28 0
y_172_19 0
y_172_10 0
y_172_27 0
y_172_11 0
y_172_2 0
y_172_12 1
y_172_25 0
y_172_9 0
y_172_76 0
y_62_28 0
y_62_19 1
y_62_10 0
y_62_27 0
y_62_11 0
y_62_2 0
y_62_12 0
y_62_25 0
y_62_9 0
y_62_76 0
y_206_28 0
y_206_19 0
y_206_10 0
y_206_27 0
y_206_11 1
y_206_2 0
y_206_12 0
y_206_25 0
y_206_9 0
y_206_76 0
y_210_28 0
y_210_19 0
y_210_10 0
y_210_27 0
y_210_11 0
y_210_2 1
y_210_12 0
y_210_25 0
y_210_9 0
y_210_76 0
y_33_28 0
y_33_19 0
y_33_10 0
y_33_27 0
y_33_11 0
y_33_2 1
y_33_12 0
y_33_25 0
y_33_9 0
y_33_76 0
y_153_28 0
y_153_19 0
y_153_10 0
y_153_27 0
y_153_11 0
y_153_2 0
y_153_12 0
y_153_25 0
y_153_9 0
y_153_76 0
y_102_28 0
y_102_19 0
y_102_10 0
y_102_27 0
y_102_11 0
y_102_2 0
y_102_12 0
y_102_25 0
y_102_9 1
y_102_76 0
y_151_28 0
y_151_19 0
y_151_10 1
y_151_27 0
y_151_11 0
y_151_2 0
y_151_12 0
y_151_25 0
y_151_9 0
y_151_76 0
y_4_28 0
y_4_19 0
y_4_10 0
y_4_27 1
y_4_11 0
y_4_2 0
y_4_12 0
y_4_25 0
y_4_9 0
y_4_76 0
y_162_28 0
y_162_19 0
y_162_10 0
y_162_27 0
y_162_11 0
y_162_2 0
y_162_12 0
y_162_25 0
y_162_9 0
y_162_76 0
y_53_28 0
y_53_19 0
y_53_10 0
y_53_27 0
y_53_11 0
y_53_2 0
y_53_12 0
y_53_25 0
y_53_9 0
y_53_76 1
y_5_28 0
y_5_19 1
y_5_10 0
y_5_27 0
y_5_11 0
y_5_2 0
y_5_12 0
y_5_25 0
y_5_9 0
y_5_76 0
y_6_28 0
y_6_19 0
y_6_10 0
y_6_27 0
y_6_11 0
y_6_2 0
y_6_12 0
y_6_25 1
y_6_9 0
y_6_76 0
y_222_28 1
y_222_19 0
y_222_10 0
y_222_27 0
y_222_11 0
y_222_2 0
y_222_12 0
y_222_25 0
y_222_9 0
y_222_76 0
y_215_28 0
y_215_19 0
y_215_10 0
y_215_27 0
y_215_11 0
y_215_2 0
y_215_12 0
y_215_25 0
y_215_9 1
y_215_76 0
y_165_28 0
y_165_19 0
y_165_10 0
y_165_27 0
y_165_11 1
y_165_2 0
y_165_12 0
y_165_25 0
y_165_9 0
y_165_76 0
y_30_28 0
y_30_19 0
y_30_10 1
y_30_27 0
y_30_11 0
y_30_2 0
y_30_12 0
y_30_25 0
y_30_9 0
y_30_76 0
y_155_28 0
y_155_19 0
y_155_10 0
y_155_27 0
y_155_11 0
y_155_2 0
y_155_12 1
y_155_25 0
y_155_9 0
y_155_76 0
y_207_28 0
y_207_19 0
y_207_10 0
y_207_27 0
y_207_11 0
y_207_2 0
y_207_12 0
y_207_25 1
y_207_9 0
y_207_76 0
y_196_28 0
y_196_19 0
y_196_10 0
y_196_27 0
y_196_11 0
y_196_2 0
y_196_12 0
y_196_25 0
y_196_9 0
y_196_76 1
y_110_28 0
y_110_19 0
y_110_10 0
y_110_27 1
y_110_11 0
y_110_2 0
y_110_12 0
y_110_25 0
y_110_9 0
y_110_76 0
y_140_28 1
y_140_19 0
y_140_10 0
y_140_27 0
y_140_11 0
y_140_2 0
y_140_12 0
y_140_25 0
y_140_9 0
y_140_76 0
y_25_28 0
y_25_19 0
y_25_10 0
y_25_27 0
y_25_11 0
y_25_2 0
y_25_12 0
y_25_25 0
y_25_9 0
y_25_76 0
aFP_1_172 9185.23190679993
aFP_1_62 1.4194219643938502e+04
aFP_1_206 1.2230552443946572e+04
aFP_1_210 7.1922634978825126e+03
aFP_1_33 6.5222534026444682e+03
aFP_1_153 0
aFP_1_102 4.8150329686882533e+03
aFP_1_151 1.0380751151990993e+04
aFP_1_4 9.1274523548737852e+03
aFP_1_162 0
aFP_1_53 8.8707850843831347e+03
aFP_1_5 1.2570586501081360e+04
aFP_1_6 1.1970535293237681e+04
aFP_1_222 9.2850057118048826e+03
aFP_1_215 4815.03296868422
aFP_1_165 1.0909469539184667e+04
aFP_1_30 1.0380751151990993e+04
aFP_1_155 9.1852319067999651e+03
aFP_1_207 1.1970535293237681e+04
aFP_1_196 7.9285754177164690e+03
aFP_1_110 9.1274523548737852e+03
aFP_1_140 9.2850057118049481e+03
aFP_1_25 0
aPZ_172_28 0
aPZ_62_28 0
aPZ_206_28 0
aPZ_210_28 0
aPZ_33_28 0
aPZ_153_28 0
aPZ_102_28 0
aPZ_151_28 0
aPZ_4_28 0
aPZ_162_28 0
aPZ_53_28 0
aPZ_5_28 0
aPZ_6_28 0
aPZ_222_28 9.2850057118048826e+03
aPZ_215_28 0
aPZ_165_28 0
aPZ_30_28 0
aPZ_155_28 0
aPZ_207_28 0
aPZ_196_28 0
aPZ_110_28 0
aPZ_140_28 9.2850057118049481e+03
aPZ_25_28 0
aPZ_172_19 0
aPZ_62_19 1.4194219643938502e+04
aPZ_206_19 0
aPZ_210_19 0
aPZ_33_19 0
aPZ_153_19 0
aPZ_102_19 0
aPZ_151_19 0
aPZ_4_19 0
aPZ_162_19 0
aPZ_53_19 0
aPZ_5_19 1.2570586501081360e+04
aPZ_6_19 0
aPZ_222_19 0
aPZ_215_19 0
aPZ_165_19 0
aPZ_30_19 0
aPZ_155_19 0
aPZ_207_19 0
aPZ_196_19 0
aPZ_110_19 0
aPZ_140_19 0
aPZ_25_19 0
aPZ_172_10 0
aPZ_62_10 0
aPZ_206_10 0
aPZ_210_10 0
aPZ_33_10 0
aPZ_153_10 0
aPZ_102_10 0
aPZ_151_10 1.0380751151990993e+04
aPZ_4_10 0
aPZ_162_10 0
aPZ_53_10 0
aPZ_5_10 0
aPZ_6_10 0
aPZ_222_10 0
aPZ_215_10 0
aPZ_165_10 0
aPZ_30_10 1.0380751151990993e+04
aPZ_155_10 0
aPZ_207_10 0
aPZ_196_10 0
aPZ_110_10 0
aPZ_140_10 0
aPZ_25_10 0
aPZ_172_27 0
aPZ_62_27 0
aPZ_206_27 0
aPZ_210_27 0
aPZ_33_27 0
aPZ_153_27 0
aPZ_102_27 0
aPZ_151_27 0
aPZ_4_27 9.1274523548737852e+03
aPZ_162_27 0
aPZ_53_27 0
aPZ_5_27 0
aPZ_6_27 0
aPZ_222_27 0
aPZ_215_27 0
aPZ_165_27 0
aPZ_30_27 0
aPZ_155_27 0
aPZ_207_27 0
aPZ_196_27 0
aPZ_110_27 9.1274523548737852e+03
aPZ_140_27 0
aPZ_25_27 0
aPZ_172_11 0
aPZ_62_11 0
aPZ_206_11 1.2230552443946572e+04
aPZ_210_11 0
aPZ_33_11 0
aPZ_153_11 0
aPZ_102_11 0
aPZ_151_11 0
aPZ_4_11 0
aPZ_162_11 0
aPZ_53_11 0
aPZ_5_11 0
aPZ_6_11 0
aPZ_222_11 0
aPZ_215_11 0
aPZ_165_11 1.0909469539184667e+04
aPZ_30_11 0
aPZ_155_11 0
aPZ_207_11 0
aPZ_196_11 0
aPZ_110_11 0
aPZ_140_11 0
aPZ_25_11 0
aPZ_172_2 0
aPZ_62_2 0
aPZ_206_2 0
aPZ_210_2 7.1922634978825126e+03
aPZ_33_2 6.5222534026444682e+03
aPZ_153_2 0
aPZ_102_2 0
aPZ_151_2 0
aPZ_4_2 0
aPZ_162_2 0
aPZ_53_2 0
aPZ_5_2 0
aPZ_6_2 0
aPZ_222_2 0
aPZ_215_2 0
aPZ_165_2 0
aPZ_30_2 0
aPZ_155_2 0
aPZ_207_2 0
aPZ_196_2 0
aPZ_110_2 0
aPZ_140_2 0
aPZ_25_2 0
aPZ_172_12 9185.23190679993
aPZ_62_12 0
aPZ_206_12 0
aPZ_210_12 0
aPZ_33_12 0
aPZ_153_12 0
aPZ_102_12 0
aPZ_151_12 0
aPZ_4_12 0
aPZ_162_12 0
aPZ_53_12 0
aPZ_5_12 0
aPZ_6_12 0
aPZ_222_12 0
aPZ_215_12 0
aPZ_165_12 0
aPZ_30_12 0
aPZ_155_12 9.1852319067999651e+03
aPZ_207_12 0
aPZ_196_12 0
aPZ_110_12 0
aPZ_140_12 0
aPZ_25_12 0
aPZ_172_25 0
aPZ_62_25 0
aPZ_206_25 0
aPZ_210_25 0
aPZ_33_25 0
aPZ_153_25 0
aPZ_102_25 0
aPZ_151_25 0
aPZ_4_25 0
aPZ_162_25 0
aPZ_53_25 0
aPZ_5_25 0
aPZ_6_25 1.1970535293237681e+04
aPZ_222_25 0
aPZ_215_25 0
aPZ_165_25 0
aPZ_30_25 0
aPZ_155_25 0
aPZ_207_25 1.1970535293237681e+04
aPZ_196_25 0
aPZ_110_25 0
aPZ_140_25 0
aPZ_25_25 0
aPZ_172_9 0
aPZ_62_9 0
aPZ_206_9 0
aPZ_210_9 0
aPZ_33_9 0
aPZ_153_9 0
aPZ_102_9 4.8150329686882533e+03
aPZ_151_9 0
aPZ_4_9 0
aPZ_162_9 0
aPZ_53_9 0
aPZ_5_9 0
aPZ_6_9 0
aPZ_222_9 0
aPZ_215_9 4815.03296868422
aPZ_165_9 0
aPZ_30_9 0
aPZ_155_9 0
aPZ_207_9 0
aPZ_196_9 0
aPZ_110_9 0
aPZ_140_9 0
aPZ_25_9 0
aPZ_172_76 0
aPZ_62_76 0
aPZ_206_76 0
aPZ_210_76 0
aPZ_33_76 0
aPZ_153_76 0
aPZ_102_76 0
aPZ_151_76 0
aPZ_4_76 0
aPZ_162_76 0
aPZ_53_76 8.8707850843831347e+03
aPZ_5_76 0
aPZ_6_76 0
aPZ_222_76 0
aPZ_215_76 0
aPZ_165_76 0
aPZ_30_76 0
aPZ_155_76 0
aPZ_207_76 0
aPZ_196_76 7.9285754177164690e+03
aPZ_110_76 0
aPZ_140_76 0
aPZ_25_76 0
nT_1_172 1
nT_1_62 2
nT_1_206 2
nT_1_210 1
nT_1_33 1
nT_1_153 0
nT_1_102 1
nT_1_151 2
nT_1_4 1
nT_1_162 0
nT_1_53 1
nT_1_5 2
nT_1_6 2
nT_1_222 1
nT_1_215 1
nT_1_165 2
nT_1_30 2
nT_1_155 1
nT_1_207 2
nT_1_196 1
nT_1_110 1
nT_1_140 1
nT_1_25 0
ort_1_172 16
ort_1_62 1.7142857142857142e+01
ort_1_206 1.7142857142857142e+01
ort_1_210 1.7142857142857142e+01
ort_1_33 16
ort_1_153 0
ort_1_102 240
ort_1_151 16
ort_1_4 16
ort_1_162 0
ort_1_53 1.7142857142857142e+01
ort_1_5 16
ort_1_6 16
ort_1_222 16
ort_1_215 240
ort_1_165 16
ort_1_30 16
ort_1_155 16
ort_1_207 16
ort_1_196 16
ort_1_110 16
ort_1_140 16
ort_1_25 0
opt_1_172 1.3647405071326670e+01
opt_1_62 1.4533146160660218e+01
opt_1_206 1.4611329520659813e+01
opt_1_210 1.4836577301296350e+01
opt_1_33 1.3667220663201110e+01
opt_1_153 0
opt_1_102 2.3751924835156558e+02
opt_1_151 1.3240962442400450e+01
opt_1_4 1.3290294048922977e+01
opt_1_162 0
opt_1_53 1.4292651221971319e+01
opt_1_5 1.2938137341612599e+01
opt_1_6 1.2968139902004783e+01
opt_1_222 1.3095749714409756e+01
opt_1_215 2.3729258168489912e+02
opt_1_165 1.2974526523040767e+01
opt_1_30 1.2967629109067117e+01
opt_1_155 1.3027405071326669e+01
opt_1_207 1.2854806568671449e+01
opt_1_196 1.3043571229114177e+01
opt_1_110 1.2936960715589644e+01
opt_1_140 1.2809083047743087e+01
opt_1_25 0
dt_172_28 0
dt_172_19 0
dt_172_10 0
dt_172_27 0
dt_172_11 0
dt_172_2 0
dt_172_12 6.6468311673796361e+00
dt_172_25 0
dt_172_9 0
dt_172_76 0
dt_62_28 0
dt_62_19 7.15170527537793
dt_62_10 0
dt_62_27 0
dt_62_11 0
dt_62_2 0
dt_62_12 0
dt_62_25 0
dt_62_9 0
dt_62_76 0
dt_206_28 0
dt_206_19 0
dt_206_10 0
dt_206_27 0
dt_206_11 6.5623143387154155e+00
dt_206_2 0
dt_206_12 0
dt_206_25 0
dt_206_9 0
dt_206_76 0
dt_210_28 0
dt_210_19 0
dt_210_10 0
dt_210_27 0
dt_210_11 0
dt_210_2 4.8747886909261933e+00
dt_210_12 0
dt_210_25 0
dt_210_9 0
dt_210_76 0
dt_33_28 0
dt_33_19 0
dt_33_10 0
dt_33_27 0
dt_33_11 0
dt_33_2 4.8747886909261062e+00
dt_33_12 0
dt_33_25 0
dt_33_9 0
dt_33_76 0
dt_153_28 0
dt_153_19 0
dt_153_10 0
dt_153_27 0
dt_153_11 0
dt_153_2 0
dt_153_12 0
dt_153_25 0
dt_153_9 0
dt_153_76 0
dt_102_28 0
dt_102_19 0
dt_102_10 0
dt_102_27 0
dt_102_11 0
dt_102_2 0
dt_102_12 0
dt_102_25 0
dt_102_9 4.1972615390368446e+00
dt_102_76 0
dt_151_28 0
dt_151_19 0
dt_151_10 6.4812629031971536e+00
dt_151_27 0
dt_151_11 0
dt_151_2 0
dt_151_12 0
dt_151_25 0
dt_151_9 0
dt_151_76 0
dt_4_28 0
dt_4_19 0
dt_4_10 0
dt_4_27 6.2666083242051780e+00
dt_4_11 0
dt_4_2 0
dt_4_12 0
dt_4_25 0
dt_4_9 0
dt_4_76 0
dt_162_28 0
dt_162_19 0
dt_162_10 0
dt_162_27 0
dt_162_11 0
dt_162_2 0
dt_162_12 0
dt_162_25 0
dt_162_9 0
dt_162_76 0
dt_53_28 0
dt_53_19 0
dt_53_10 0
dt_53_27 0
dt_53_11 0
dt_53_2 0
dt_53_12 0
dt_53_25 0
dt_53_9 0
dt_53_76 6.3830013962014629e+00
dt_5_28 0
dt_5_19 7.15170527537793
dt_5_10 0
dt_5_27 0
dt_5_11 0
dt_5_2 0
dt_5_12 0
dt_5_25 0
dt_5_9 0
dt_5_76 0
dt_6_28 0
dt_6_19 0
dt_6_10 0
dt_6_27 0
dt_6_11 0
dt_6_2 0
dt_6_12 0
dt_6_25 7.0376873526327550e+00
dt_6_9 0
dt_6_76 0
dt_222_28 6.6577519991318006e+00
dt_222_19 0
dt_222_10 0
dt_222_27 0
dt_222_11 0
dt_222_2 0
dt_222_12 0
dt_222_25 0
dt_222_9 0
dt_222_76 0
dt_215_28 0
dt_215_19 0
dt_215_10 0
dt_215_27 0
dt_215_11 0
dt_215_2 0
dt_215_12 0
dt_215_25 0
dt_215_9 4.1972615392343755e+00
dt_215_76 0
dt_165_28 0
dt_165_19 0
dt_165_10 0
dt_165_27 0
dt_165_11 6.5623143387154155e+00
dt_165_2 0
dt_165_12 0
dt_165_25 0
dt_165_9 0
dt_165_76 0
dt_30_28 0
dt_30_19 0
dt_30_10 6.4812629031971536e+00
dt_30_27 0
dt_30_11 0
dt_30_2 0
dt_30_12 0
dt_30_25 0
dt_30_9 0
dt_30_76 0
dt_155_28 0
dt_155_19 0
dt_155_10 0
dt_155_27 0
dt_155_11 0
dt_155_2 0
dt_155_12 6.6468311673796006e+00
dt_155_25 0
dt_155_9 0
dt_155_76 0
dt_207_28 0
dt_207_19 0
dt_207_10 0
dt_207_27 0
dt_207_11 0
dt_207_2 0
dt_207_12 0
dt_207_25 7.0376873526327550e+00
dt_207_9 0
dt_207_76 0
dt_196_28 0
dt_196_19 0
dt_196_10 0
dt_196_27 0
dt_196_11 0
dt_196_2 0
dt_196_12 0
dt_196_25 0
dt_196_9 0
dt_196_76 6.3830013962014611e+00
dt_110_28 0
dt_110_19 0
dt_110_10 0
dt_110_27 6.2666083242051780e+00
dt_110_11 0
dt_110_2 0
dt_110_12 0
dt_110_25 0
dt_110_9 0
dt_110_76 0
dt_140_28 6.6577519991317349e+00
dt_140_19 0
dt_140_10 0
dt_140_27 0
dt_140_11 0
dt_140_2 0
dt_140_12 0
dt_140_25 0
dt_140_9 0
dt_140_76 0
dt_25_28 0
dt_25_19 0
dt_25_10 0
dt_25_27 0
dt_25_11 0
dt_25_2 0
dt_25_12 0
dt_25_25 0
dt_25_9 0
dt_25_76 0
ut_1_172 3.2148311673799759e+00
ut_1_62 4.9679768753784757e+00
ut_1_206 4.2806933553813
ut_1_210 2.5172922242588793e+00
ut_1_33 2.2827886909255639e+00
ut_1_153 0
ut_1_102 1.6852615390408887e+00
ut_1_151 3.6332629031968477e+00
ut_1_4 3.1946083242058250e+00
ut_1_162 0
ut_1_53 3.1047747795340972e+00
ut_1_5 4.3997052753784756e+00
ut_1_6 4.1896873526331886e+00
ut_1_222 3.2497519991317088e+00
ut_1_215 1.6852615390394770e+00
ut_1_165 3.8183143387146337e+00
ut_1_30 3.6332629031968477e+00
ut_1_155 3.2148311673799879e+00
ut_1_207 4.1896873526331886e+00
ut_1_196 2.7750013962007642e+00
ut_1_110 3.1946083242058250e+00
ut_1_140 3.2497519991317318e+00
ut_1_25 0
fFP_1_172 15
fFP_1_62 14
fFP_1_206 14
fFP_1_210 14
fFP_1_33 15
fFP_1_153 0
fFP_1_102 1
fFP_1_151 15
fFP_1_4 15
fFP_1_162 0
fFP_1_53 14
fFP_1_5 15
fFP_1_6 15
fFP_1_222 15
fFP_1_215 1
fFP_1_165 15
fFP_1_30 15
fFP_1_155 15
fFP_1_207 15
fFP_1_196 15
fFP_1_110 15
fFP_1_140 15
fFP_1_25 0
dt_28 6.6577519991317331e+00
dt_19 7.1517052753779318e+00
dt_10 6.4812629031971536e+00
dt_27 6.2666083242051780e+00
dt_11 6.5623143387154155e+00
dt_2 4.8747886909261329e+00
dt_12 6.6468311673796006e+00
dt_25 7.0376873526327532e+00
dt_9 4.1972615390368446e+00
dt_76 6.3830013962014611e+00
dtt_28 99.866279986976
dtt_19 1.0727557913066893e+02
dtt_10 9.7218943547957338e+01
dtt_27 9.3999124863077682e+01
dtt_11 9.8434715080731351e+01
dtt_2 7.3121830363892059e+01
dtt_12 9.9702467510693964e+01
dtt_25 1.0556531028949132e+02
dtt_9 6.2958923085556307e+01
dtt_76 9.5745020943021942e+01
dep_cost 4.4433265577778537e+06
log_cost 1.6717916123879218e+05
ort_y_1_172_28 0
ort_y_1_172_19 0
ort_y_1_172_10 0
ort_y_1_172_27 0
ort_y_1_172_11 0
ort_y_1_172_2 0
ort_y_1_172_12 16
ort_y_1_172_25 0
ort_y_1_172_9 0
ort_y_1_172_76 0
ort_y_1_62_28 0
ort_y_1_62_19 1.7142857142857142e+01
ort_y_1_62_10 0
ort_y_1_62_27 0
ort_y_1_62_11 0
ort_y_1_62_2 0
ort_y_1_62_12 0
ort_y_1_62_25 0
ort_y_1_62_9 0
ort_y_1_62_76 0
ort_y_1_206_28 0
ort_y_1_206_19 0
ort_y_1_206_10 0
ort_y_1_206_27 0
ort_y_1_206_11 1.7142857142857142e+01
ort_y_1_206_2 0
ort_y_1_206_12 0
ort_y_1_206_25 0
ort_y_1_206_9 0
ort_y_1_206_76 0
ort_y_1_210_28 0
ort_y_1_210_19 0
ort_y_1_210_10 0
ort_y_1_210_27 0
ort_y_1_210_11 0
ort_y_1_210_2 1.7142857142857142e+01
ort_y_1_210_12 0
ort_y_1_210_25 0
ort_y_1_210_9 0
ort_y_1_210_76 0
ort_y_1_33_28 0
ort_y_1_33_19 0
ort_y_1_33_10 0
ort_y_1_33_27 0
ort_y_1_33_11 0
ort_y_1_33_2 16
ort_y_1_33_12 0
ort_y_1_33_25 0
ort_y_1_33_9 0
ort_y_1_33_76 0
ort_y_1_153_28 0
ort_y_1_153_19 0
ort_y_1_153_10 0
ort_y_1_153_27 0
ort_y_1_153_11 0
ort_y_1_153_2 0
ort_y_1_153_12 0
ort_y_1_153_25 0
ort_y_1_153_9 0
ort_y_1_153_76 0
ort_y_1_102_28 0
ort_y_1_102_19 0
ort_y_1_102_10 0
ort_y_1_102_27 0
ort_y_1_102_11 0
ort_y_1_102_2 0
ort_y_1_102_12 0
ort_y_1_102_25 0
ort_y_1_102_9 240
ort_y_1_102_76 0
ort_y_1_151_28 0
ort_y_1_151_19 0
ort_y_1_151_10 16
ort_y_1_151_27 0
ort_y_1_151_11 0
ort_y_1_151_2 0
ort_y_1_151_12 0
ort_y_1_151_25 0
ort_y_1_151_9 0
ort_y_1_151_76 0
ort_y_1_4_28 0
ort_y_1_4_19 0
ort_y_1_4_10 0
ort_y_1_4_27 16
ort_y_1_4_11 0
ort_y_1_4_2 0
ort_y_1_4_12 0
ort_y_1_4_25 0
ort_y_1_4_9 0
ort_y_1_4_76 0
ort_y_1_162_28 0
ort_y_1_162_19 0
ort_y_1_162_10 0
ort_y_1_162_27 0
ort_y_1_162_11 0
ort_y_1_162_2 0
ort_y_1_162_12 0
ort_y_1_162_25 0
ort_y_1_162_9 0
ort_y_1_162_76 0
ort_y_1_53_28 0
ort_y_1_53_19 0
ort_y_1_53_10 0
ort_y_1_53_27 0
ort_y_1_53_11 0
ort_y_1_53_2 0
ort_y_1_53_12 0
ort_y_1_53_25 0
ort_y_1_53_9 0
ort_y_1_53_76 1.7142857142857142e+01
ort_y_1_5_28 0
ort_y_1_5_19 16
ort_y_1_5_10 0
ort_y_1_5_27 0
ort_y_1_5_11 0
ort_y_1_5_2 0
ort_y_1_5_12 0
ort_y_1_5_25 0
ort_y_1_5_9 0
ort_y_1_5_76 0
ort_y_1_6_28 0
ort_y_1_6_19 0
ort_y_1_6_10 0
ort_y_1_6_27 0
ort_y_1_6_11 0
ort_y_1_6_2 0
ort_y_1_6_12 0
ort_y_1_6_25 16
ort_y_1_6_9 0
ort_y_1_6_76 0
ort_y_1_222_28 16
ort_y_1_222_19 0
ort_y_1_222_10 0
ort_y_1_222_27 0
ort_y_1_222_11 0
ort_y_1_222_2 0
ort_y_1_222_12 0
ort_y_1_222_25 0
ort_y_1_222_9 0
ort_y_1_222_76 0
ort_y_1_215_28 0
ort_y_1_215_19 0
ort_y_1_215_10 0
ort_y_1_215_27 0
ort_y_1_215_11 0
ort_y_1_215_2 0
ort_y_1_215_12 0
ort_y_1_215_25 0
ort_y_1_215_9 240
ort_y_1_215_76 0
ort_y_1_165_28 0
ort_y_1_165_19 0
ort_y_1_165_10 0
ort_y_1_165_27 0
ort_y_1_165_11 16
ort_y_1_165_2 0
ort_y_1_165_12 0
ort_y_1_165_25 0
ort_y_1_165_9 0
ort_y_1_165_76 0
ort_y_1_30_28 0
ort_y_1_30_19 0
ort_y_1_30_10 16
ort_y_1_30_27 0
ort_y_1_30_11 0
ort_y_1_30_2 0
ort_y_1_30_12 0
ort_y_1_30_25 0
ort_y_1_30_9 0
ort_y_1_30_76 0
ort_y_1_155_28 0
ort_y_1_155_19 0
ort_y_1_155_10 0
ort_y_1_155_27 0
ort_y_1_155_11 0
ort_y_1_155_2 0
ort_y_1_155_12 16
ort_y_1_155_25 0
ort_y_1_155_9 0
ort_y_1_155_76 0
ort_y_1_207_28 0
ort_y_1_207_19 0
ort_y_1_207_10 0
ort_y_1_207_27 0
ort_y_1_207_11 0
ort_y_1_207_2 0
ort_y_1_207_12 0
ort_y_1_207_25 16
ort_y_1_207_9 0
ort_y_1_207_76 0
ort_y_1_196_28 0
ort_y_1_196_19 0
ort_y_1_196_10 0
ort_y_1_196_27 0
ort_y_1_196_11 0
ort_y_1_196_2 0
ort_y_1_196_12 0
ort_y_1_196_25 0
ort_y_1_196_9 0
ort_y_1_196_76 16
ort_y_1_110_28 0
ort_y_1_110_19 0
ort_y_1_110_10 0
ort_y_1_110_27 16
ort_y_1_110_11 0
ort_y_1_110_2 0
ort_y_1_110_12 0
ort_y_1_110_25 0
ort_y_1_110_9 0
ort_y_1_110_76 0
ort_y_1_140_28 16
ort_y_1_140_19 0
ort_y_1_140_10 0
ort_y_1_140_27 0
ort_y_1_140_11 0
ort_y_1_140_2 0
ort_y_1_140_12 0
ort_y_1_140_25 0
ort_y_1_140_9 0
ort_y_1_140_76 0
ort_y_1_25_28 0
ort_y_1_25_19 0
ort_y_1_25_10 0
ort_y_1_25_27 0
ort_y_1_25_11 0
ort_y_1_25_2 0
ort_y_1_25_12 0
ort_y_1_25_25 0
ort_y_1_25_9 0
ort_y_1_25_76 0
ut_y_1_172_28 0
ut_y_1_172_19 0
ut_y_1_172_10 0
ut_y_1_172_27 0
ut_y_1_172_11 0
ut_y_1_172_2 0
ut_y_1_172_12 3.2148311673807877e+00
ut_y_1_172_25 0
ut_y_1_172_9 0
ut_y_1_172_76 0
ut_y_1_62_28 0
ut_y_1_62_19 4.9679768753790139e+00
ut_y_1_62_10 0
ut_y_1_62_27 0
ut_y_1_62_11 0
ut_y_1_62_2 0
ut_y_1_62_12 0
ut_y_1_62_25 0
ut_y_1_62_9 0
ut_y_1_62_76 0
ut_y_1_206_28 0
ut_y_1_206_19 0
ut_y_1_206_10 0
ut_y_1_206_27 0
ut_y_1_206_11 4.2806933553805813e+00
ut_y_1_206_2 0
ut_y_1_206_12 0
ut_y_1_206_25 0
ut_y_1_206_9 0
ut_y_1_206_76 0
ut_y_1_210_28 0
ut_y_1_210_19 0
ut_y_1_210_10 0
ut_y_1_210_27 0
ut_y_1_210_11 0
ut_y_1_210_2 2.5172922242592488e+00
ut_y_1_210_12 0
ut_y_1_210_25 0
ut_y_1_210_9 0
ut_y_1_210_76 0
ut_y_1_33_28 0
ut_y_1_33_19 0
ut_y_1_33_10 0
ut_y_1_33_27 0
ut_y_1_33_11 0
ut_y_1_33_2 2.2827886909261403e+00
ut_y_1_33_12 0
ut_y_1_33_25 0
ut_y_1_33_9 0
ut_y_1_33_76 0
ut_y_1_153_28 0
ut_y_1_153_19 0
ut_y_1_153_10 0
ut_y_1_153_27 0
ut_y_1_153_11 0
ut_y_1_153_2 0
ut_y_1_153_12 0
ut_y_1_153_25 0
ut_y_1_153_9 0
ut_y_1_153_76 0
ut_y_1_102_28 0
ut_y_1_102_19 0
ut_y_1_102_10 0
ut_y_1_102_27 0
ut_y_1_102_11 0
ut_y_1_102_2 0
ut_y_1_102_12 0
ut_y_1_102_25 0
ut_y_1_102_9 1.6852615390417220e+00
ut_y_1_102_76 0
ut_y_1_151_28 0
ut_y_1_151_19 0
ut_y_1_151_10 3.6332629031960821e+00
ut_y_1_151_27 0
ut_y_1_151_11 0
ut_y_1_151_2 0
ut_y_1_151_12 0
ut_y_1_151_25 0
ut_y_1_151_9 0
ut_y_1_151_76 0
ut_y_1_4_28 0
ut_y_1_4_19 0
ut_y_1_4_10 0
ut_y_1_4_27 3.1946083242054235e+00
ut_y_1_4_11 0
ut_y_1_4_2 0
ut_y_1_4_12 0
ut_y_1_4_25 0
ut_y_1_4_9 0
ut_y_1_4_76 0
ut_y_1_162_28 0
ut_y_1_162_19 0
ut_y_1_162_10 0
ut_y_1_162_27 0
ut_y_1_162_11 0
ut_y_1_162_2 0
ut_y_1_162_12 0
ut_y_1_162_25 0
ut_y_1_162_9 0
ut_y_1_162_76 0
ut_y_1_53_28 0
ut_y_1_53_19 0
ut_y_1_53_10 0
ut_y_1_53_27 0
ut_y_1_53_11 0
ut_y_1_53_2 0
ut_y_1_53_12 0
ut_y_1_53_25 0
ut_y_1_53_9 0
ut_y_1_53_76 3.1047747795332152e+00
ut_y_1_5_28 0
ut_y_1_5_19 4.3997052753779320e+00
ut_y_1_5_10 0
ut_y_1_5_27 0
ut_y_1_5_11 0
ut_y_1_5_2 0
ut_y_1_5_12 0
ut_y_1_5_25 0
ut_y_1_5_9 0
ut_y_1_5_76 0
ut_y_1_6_28 0
ut_y_1_6_19 0
ut_y_1_6_10 0
ut_y_1_6_27 0
ut_y_1_6_11 0
ut_y_1_6_2 0
ut_y_1_6_12 0
ut_y_1_6_25 4.1896873526327516e+00
ut_y_1_6_9 0
ut_y_1_6_76 0
ut_y_1_222_28 3.2497519991317088e+00
ut_y_1_222_19 0
ut_y_1_222_10 0
ut_y_1_222_27 0
ut_y_1_222_11 0
ut_y_1_222_2 0
ut_y_1_222_12 0
ut_y_1_222_25 0
ut_y_1_222_9 0
ut_y_1_222_76 0
ut_y_1_215_28 0
ut_y_1_215_19 0
ut_y_1_215_10 0
ut_y_1_215_27 0
ut_y_1_215_11 0
ut_y_1_215_2 0
ut_y_1_215_12 0
ut_y_1_215_25 0
ut_y_1_215_9 1.6852615390393517e+00
ut_y_1_215_76 0
ut_y_1_165_28 0
ut_y_1_165_19 0
ut_y_1_165_10 0
ut_y_1_165_27 0
ut_y_1_165_11 3.8183143387154161e+00
ut_y_1_165_2 0
ut_y_1_165_12 0
ut_y_1_165_25 0
ut_y_1_165_9 0
ut_y_1_165_76 0
ut_y_1_30_28 0
ut_y_1_30_19 0
ut_y_1_30_10 3.6332629031971533e+00
ut_y_1_30_27 0
ut_y_1_30_11 0
ut_y_1_30_2 0
ut_y_1_30_12 0
ut_y_1_30_25 0
ut_y_1_30_9 0
ut_y_1_30_76 0
ut_y_1_155_28 0
ut_y_1_155_19 0
ut_y_1_155_10 0
ut_y_1_155_27 0
ut_y_1_155_11 0
ut_y_1_155_2 0
ut_y_1_155_12 3.2148311673796006e+00
ut_y_1_155_25 0
ut_y_1_155_9 0
ut_y_1_155_76 0
ut_y_1_207_28 0
ut_y_1_207_19 0
ut_y_1_207_10 0
ut_y_1_207_27 0
ut_y_1_207_11 0
ut_y_1_207_2 0
ut_y_1_207_12 0
ut_y_1_207_25 4.1896873526337970e+00
ut_y_1_207_9 0
ut_y_1_207_76 0
ut_y_1_196_28 0
ut_y_1_196_19 0
ut_y_1_196_10 0
ut_y_1_196_27 0
ut_y_1_196_11 0
ut_y_1_196_2 0
ut_y_1_196_12 0
ut_y_1_196_25 0
ut_y_1_196_9 0
ut_y_1_196_76 2.7750013962014624e+00
ut_y_1_110_28 0
ut_y_1_110_19 0
ut_y_1_110_10 0
ut_y_1_110_27 3.1946083242051784e+00
ut_y_1_110_11 0
ut_y_1_110_2 0
ut_y_1_110_12 0
ut_y_1_110_25 0
ut_y_1_110_9 0
ut_y_1_110_76 0
ut_y_1_140_28 3.2497519991317318e+00
ut_y_1_140_19 0
ut_y_1_140_10 0
ut_y_1_140_27 0
ut_y_1_140_11 0
ut_y_1_140_2 0
ut_y_1_140_12 0
ut_y_1_140_25 0
ut_y_1_140_9 0
ut_y_1_140_76 0
ut_y_1_25_28 0
ut_y_1_25_19 0
ut_y_1_25_10 0
ut_y_1_25_27 0
ut_y_1_25_11 0
ut_y_1_25_2 0
ut_y_1_25_12 0
ut_y_1_25_25 0
ut_y_1_25_9 0
ut_y_1_25_76 0
ort_fFP_1_172 0
ort_fFP_1_62 0
ort_fFP_1_206 0
ort_fFP_1_210 0
ort_fFP_1_33 0
ort_fFP_1_153 0
ort_fFP_1_102 0
ort_fFP_1_151 0
ort_fFP_1_4 0
ort_fFP_1_162 0
ort_fFP_1_53 0
ort_fFP_1_5 0
ort_fFP_1_6 0
ort_fFP_1_222 0
ort_fFP_1_215 0
ort_fFP_1_165 0
ort_fFP_1_30 0
ort_fFP_1_155 0
ort_fFP_1_207 0
ort_fFP_1_196 0
ort_fFP_1_110 0
ort_fFP_1_140 0
ort_fFP_1_25 0
ort_fFP1_1_172 0
ort_fFP1_1_62 0
ort_fFP1_1_206 0
ort_fFP1_1_210 0
ort_fFP1_1_33 0
ort_fFP1_1_153 0
ort_fFP1_1_102 0
ort_fFP1_1_151 0
ort_fFP1_1_4 0
ort_fFP1_1_162 0
ort_fFP1_1_53 0
ort_fFP1_1_5 0
ort_fFP1_1_6 0
ort_fFP1_1_222 0
ort_fFP1_1_215 0
ort_fFP1_1_165 0
ort_fFP1_1_30 0
ort_fFP1_1_155 0
ort_fFP1_1_207 0
ort_fFP1_1_196 0
ort_fFP1_1_110 0
ort_fFP1_1_140 0
ort_fFP1_1_25 0
ort_fFP2_1_172 0
ort_fFP2_1_62 0
ort_fFP2_1_206 0
ort_fFP2_1_210 0
ort_fFP2_1_33 0
ort_fFP2_1_153 0
ort_fFP2_1_102 0
ort_fFP2_1_151 0
ort_fFP2_1_4 0
ort_fFP2_1_162 0
ort_fFP2_1_53 0
ort_fFP2_1_5 0
ort_fFP2_1_6 0
ort_fFP2_1_222 0
ort_fFP2_1_215 0
ort_fFP2_1_165 0
ort_fFP2_1_30 0
ort_fFP2_1_155 0
ort_fFP2_1_207 0
ort_fFP2_1_196 0
ort_fFP2_1_110 0
ort_fFP2_1_140 0
ort_fFP2_1_25 0
dt_fFP_1_172_28 0
dt_fFP_1_172_19 0
dt_fFP_1_172_10 0
dt_fFP_1_172_27 0
dt_fFP_1_172_11 0
dt_fFP_1_172_2 0
dt_fFP_1_172_12 0
dt_fFP_1_172_25 0
dt_fFP_1_172_9 0
dt_fFP_1_172_76 0
dt_fFP_1_62_28 0
dt_fFP_1_62_19 0
dt_fFP_1_62_10 0
dt_fFP_1_62_27 0
dt_fFP_1_62_11 0
dt_fFP_1_62_2 0
dt_fFP_1_62_12 0
dt_fFP_1_62_25 0
dt_fFP_1_62_9 0
dt_fFP_1_62_76 0
dt_fFP_1_206_28 0
dt_fFP_1_206_19 0
dt_fFP_1_206_10 0
dt_fFP_1_206_27 0
dt_fFP_1_206_11 0
dt_fFP_1_206_2 0
dt_fFP_1_206_12 0
dt_fFP_1_206_25 0
dt_fFP_1_206_9 0
dt_fFP_1_206_76 0
dt_fFP_1_210_28 0
dt_fFP_1_210_19 0
dt_fFP_1_210_10 0
dt_fFP_1_210_27 0
dt_fFP_1_210_11 0
dt_fFP_1_210_2 0
dt_fFP_1_210_12 0
dt_fFP_1_210_25 0
dt_fFP_1_210_9 0
dt_fFP_1_210_76 0
dt_fFP_1_33_28 0
dt_fFP_1_33_19 0
dt_fFP_1_33_10 0
dt_fFP_1_33_27 0
dt_fFP_1_33_11 0
dt_fFP_1_33_2 0
dt_fFP_1_33_12 0
dt_fFP_1_33_25 0
dt_fFP_1_33_9 0
dt_fFP_1_33_76 0
dt_fFP_1_153_28 0
dt_fFP_1_153_19 0
dt_fFP_1_153_10 0
dt_fFP_1_153_27 0
dt_fFP_1_153_11 0
dt_fFP_1_153_2 0
dt_fFP_1_153_12 0
dt_fFP_1_153_25 0
dt_fFP_1_153_9 0
dt_fFP_1_153_76 0
dt_fFP_1_102_28 0
dt_fFP_1_102_19 0
dt_fFP_1_102_10 0
dt_fFP_1_102_27 0
dt_fFP_1_102_11 0
dt_fFP_1_102_2 0
dt_fFP_1_102_12 0
dt_fFP_1_102_25 0
dt_fFP_1_102_9 0
dt_fFP_1_102_76 0
dt_fFP_1_151_28 0
dt_fFP_1_151_19 0
dt_fFP_1_151_10 0
dt_fFP_1_151_27 0
dt_fFP_1_151_11 0
dt_fFP_1_151_2 0
dt_fFP_1_151_12 0
dt_fFP_1_151_25 0
dt_fFP_1_151_9 0
dt_fFP_1_151_76 0
dt_fFP_1_4_28 0
dt_fFP_1_4_19 0
dt_fFP_1_4_10 0
dt_fFP_1_4_27 0
dt_fFP_1_4_11 0
dt_fFP_1_4_2 0
dt_fFP_1_4_12 0
dt_fFP_1_4_25 0
dt_fFP_1_4_9 0
dt_fFP_1_4_76 0
dt_fFP_1_162_28 0
dt_fFP_1_162_19 0
dt_fFP_1_162_10 0
dt_fFP_1_162_27 0
dt_fFP_1_162_11 0
dt_fFP_1_162_2 0
dt_fFP_1_162_12 0
dt_fFP_1_162_25 0
dt_fFP_1_162_9 0
dt_fFP_1_162_76 0
dt_fFP_1_53_28 0
dt_fFP_1_53_19 0
dt_fFP_1_53_10 0
dt_fFP_1_53_27 0
dt_fFP_1_53_11 0
dt_fFP_1_53_2 0
dt_fFP_1_53_12 0
dt_fFP_1_53_25 0
dt_fFP_1_53_9 0
dt_fFP_1_53_76 0
dt_fFP_1_5_28 0
dt_fFP_1_5_19 0
dt_fFP_1_5_10 0
dt_fFP_1_5_27 0
dt_fFP_1_5_11 0
dt_fFP_1_5_2 0
dt_fFP_1_5_12 0
dt_fFP_1_5_25 0
dt_fFP_1_5_9 0
dt_fFP_1_5_76 0
dt_fFP_1_6_28 0
dt_fFP_1_6_19 0
dt_fFP_1_6_10 0
dt_fFP_1_6_27 0
dt_fFP_1_6_11 0
dt_fFP_1_6_2 0
dt_fFP_1_6_12 0
dt_fFP_1_6_25 0
dt_fFP_1_6_9 0
dt_fFP_1_6_76 0
dt_fFP_1_222_28 0
dt_fFP_1_222_19 0
dt_fFP_1_222_10 0
dt_fFP_1_222_27 0
dt_fFP_1_222_11 0
dt_fFP_1_222_2 0
dt_fFP_1_222_12 0
dt_fFP_1_222_25 0
dt_fFP_1_222_9 0
dt_fFP_1_222_76 0
dt_fFP_1_215_28 0
dt_fFP_1_215_19 0
dt_fFP_1_215_10 0
dt_fFP_1_215_27 0
dt_fFP_1_215_11 0
dt_fFP_1_215_2 0
dt_fFP_1_215_12 0
dt_fFP_1_215_25 0
dt_fFP_1_215_9 0
dt_fFP_1_215_76 0
dt_fFP_1_165_28 0
dt_fFP_1_165_19 0
dt_fFP_1_165_10 0
dt_fFP_1_165_27 0
dt_fFP_1_165_11 0
dt_fFP_1_165_2 0
dt_fFP_1_165_12 0
dt_fFP_1_165_25 0
dt_fFP_1_165_9 0
dt_fFP_1_165_76 0
dt_fFP_1_30_28 0
dt_fFP_1_30_19 0
dt_fFP_1_30_10 0
dt_fFP_1_30_27 0
dt_fFP_1_30_11 0
dt_fFP_1_30_2 0
dt_fFP_1_30_12 0
dt_fFP_1_30_25 0
dt_fFP_1_30_9 0
dt_fFP_1_30_76 0
dt_fFP_1_155_28 0
dt_fFP_1_155_19 0
dt_fFP_1_155_10 0
dt_fFP_1_155_27 0
dt_fFP_1_155_11 0
dt_fFP_1_155_2 0
dt_fFP_1_155_12 0
dt_fFP_1_155_25 0
dt_fFP_1_155_9 0
dt_fFP_1_155_76 0
dt_fFP_1_207_28 0
dt_fFP_1_207_19 0
dt_fFP_1_207_10 0
dt_fFP_1_207_27 0
dt_fFP_1_207_11 0
dt_fFP_1_207_2 0
dt_fFP_1_207_12 0
dt_fFP_1_207_25 0
dt_fFP_1_207_9 0
dt_fFP_1_207_76 0
dt_fFP_1_196_28 0
dt_fFP_1_196_19 0
dt_fFP_1_196_10 0
dt_fFP_1_196_27 0
dt_fFP_1_196_11 0
dt_fFP_1_196_2 0
dt_fFP_1_196_12 0
dt_fFP_1_196_25 0
dt_fFP_1_196_9 0
dt_fFP_1_196_76 0
dt_fFP_1_110_28 0
dt_fFP_1_110_19 0
dt_fFP_1_110_10 0
dt_fFP_1_110_27 0
dt_fFP_1_110_11 0
dt_fFP_1_110_2 0
dt_fFP_1_110_12 0
dt_fFP_1_110_25 0
dt_fFP_1_110_9 0
dt_fFP_1_110_76 0
dt_fFP_1_140_28 0
dt_fFP_1_140_19 0
dt_fFP_1_140_10 0
dt_fFP_1_140_27 0
dt_fFP_1_140_11 0
dt_fFP_1_140_2 0
dt_fFP_1_140_12 0
dt_fFP_1_140_25 0
dt_fFP_1_140_9 0
dt_fFP_1_140_76 0
dt_fFP_1_25_28 0
dt_fFP_1_25_19 0
dt_fFP_1_25_10 0
dt_fFP_1_25_27 0
dt_fFP_1_25_11 0
dt_fFP_1_25_2 0
dt_fFP_1_25_12 0
dt_fFP_1_25_25 0
dt_fFP_1_25_9 0
dt_fFP_1_25_76 0
dt_fFP1_1_172_28 0
dt_fFP1_1_172_19 0
dt_fFP1_1_172_10 0
dt_fFP1_1_172_27 0
dt_fFP1_1_172_11 0
dt_fFP1_1_172_2 0
dt_fFP1_1_172_12 0
dt_fFP1_1_172_25 0
dt_fFP1_1_172_9 0
dt_fFP1_1_172_76 0
dt_fFP1_1_62_28 0
dt_fFP1_1_62_19 0
dt_fFP1_1_62_10 0
dt_fFP1_1_62_27 0
dt_fFP1_1_62_11 0
dt_fFP1_1_62_2 0
dt_fFP1_1_62_12 0
dt_fFP1_1_62_25 0
dt_fFP1_1_62_9 0
dt_fFP1_1_62_76 0
dt_fFP1_1_206_28 0
dt_fFP1_1_206_19 0
dt_fFP1_1_206_10 0
dt_fFP1_1_206_27 0
dt_fFP1_1_206_11 0
dt_fFP1_1_206_2 0
dt_fFP1_1_206_12 0
dt_fFP1_1_206_25 0
dt_fFP1_1_206_9 0
dt_fFP1_1_206_76 0
dt_fFP1_1_210_28 0
dt_fFP1_1_210_19 0
dt_fFP1_1_210_10 0
dt_fFP1_1_210_27 0
dt_fFP1_1_210_11 0
dt_fFP1_1_210_2 0
dt_fFP1_1_210_12 0
dt_fFP1_1_210_25 0
dt_fFP1_1_210_9 0
dt_fFP1_1_210_76 0
dt_fFP1_1_33_28 0
dt_fFP1_1_33_19 0
dt_fFP1_1_33_10 0
dt_fFP1_1_33_27 0
dt_fFP1_1_33_11 0
dt_fFP1_1_33_2 0
dt_fFP1_1_33_12 0
dt_fFP1_1_33_25 0
dt_fFP1_1_33_9 0
dt_fFP1_1_33_76 0
dt_fFP1_1_153_28 0
dt_fFP1_1_153_19 0
dt_fFP1_1_153_10 0
dt_fFP1_1_153_27 0
dt_fFP1_1_153_11 0
dt_fFP1_1_153_2 0
dt_fFP1_1_153_12 0
dt_fFP1_1_153_25 0
dt_fFP1_1_153_9 0
dt_fFP1_1_153_76 0
dt_fFP1_1_102_28 0
dt_fFP1_1_102_19 0
dt_fFP1_1_102_10 0
dt_fFP1_1_102_27 0
dt_fFP1_1_102_11 0
dt_fFP1_1_102_2 0
dt_fFP1_1_102_12 0
dt_fFP1_1_102_25 0
dt_fFP1_1_102_9 0
dt_fFP1_1_102_76 0
dt_fFP1_1_151_28 0
dt_fFP1_1_151_19 0
dt_fFP1_1_151_10 0
dt_fFP1_1_151_27 0
dt_fFP1_1_151_11 0
dt_fFP1_1_151_2 0
dt_fFP1_1_151_12 0
dt_fFP1_1_151_25 0
dt_fFP1_1_151_9 0
dt_fFP1_1_151_76 0
dt_fFP1_1_4_28 0
dt_fFP1_1_4_19 0
dt_fFP1_1_4_10 0
dt_fFP1_1_4_27 0
dt_fFP1_1_4_11 0
dt_fFP1_1_4_2 0
dt_fFP1_1_4_12 0
dt_fFP1_1_4_25 0
dt_fFP1_1_4_9 0
dt_fFP1_1_4_76 0
dt_fFP1_1_162_28 0
dt_fFP1_1_162_19 0
dt_fFP1_1_162_10 0
dt_fFP1_1_162_27 0
dt_fFP1_1_162_11 0
dt_fFP1_1_162_2 0
dt_fFP1_1_162_12 0
dt_fFP1_1_162_25 0
dt_fFP1_1_162_9 0
dt_fFP1_1_162_76 0
dt_fFP1_1_53_28 0
dt_fFP1_1_53_19 0
dt_fFP1_1_53_10 0
dt_fFP1_1_53_27 0
dt_fFP1_1_53_11 0
dt_fFP1_1_53_2 0
dt_fFP1_1_53_12 0
dt_fFP1_1_53_25 0
dt_fFP1_1_53_9 0
dt_fFP1_1_53_76 0
dt_fFP1_1_5_28 0
dt_fFP1_1_5_19 0
dt_fFP1_1_5_10 0
dt_fFP1_1_5_27 0
dt_fFP1_1_5_11 0
dt_fFP1_1_5_2 0
dt_fFP1_1_5_12 0
dt_fFP1_1_5_25 0
dt_fFP1_1_5_9 0
dt_fFP1_1_5_76 0
dt_fFP1_1_6_28 0
dt_fFP1_1_6_19 0
dt_fFP1_1_6_10 0
dt_fFP1_1_6_27 0
dt_fFP1_1_6_11 0
dt_fFP1_1_6_2 0
dt_fFP1_1_6_12 0
dt_fFP1_1_6_25 0
dt_fFP1_1_6_9 0
dt_fFP1_1_6_76 0
dt_fFP1_1_222_28 0
dt_fFP1_1_222_19 0
dt_fFP1_1_222_10 0
dt_fFP1_1_222_27 0
dt_fFP1_1_222_11 0
dt_fFP1_1_222_2 0
dt_fFP1_1_222_12 0
dt_fFP1_1_222_25 0
dt_fFP1_1_222_9 0
dt_fFP1_1_222_76 0
dt_fFP1_1_215_28 0
dt_fFP1_1_215_19 0
dt_fFP1_1_215_10 0
dt_fFP1_1_215_27 0
dt_fFP1_1_215_11 0
dt_fFP1_1_215_2 0
dt_fFP1_1_215_12 0
dt_fFP1_1_215_25 0
dt_fFP1_1_215_9 0
dt_fFP1_1_215_76 0
dt_fFP1_1_165_28 0
dt_fFP1_1_165_19 0
dt_fFP1_1_165_10 0
dt_fFP1_1_165_27 0
dt_fFP1_1_165_11 0
dt_fFP1_1_165_2 0
dt_fFP1_1_165_12 0
dt_fFP1_1_165_25 0
dt_fFP1_1_165_9 0
dt_fFP1_1_165_76 0
dt_fFP1_1_30_28 0
dt_fFP1_1_30_19 0
dt_fFP1_1_30_10 0
dt_fFP1_1_30_27 0
dt_fFP1_1_30_11 0
dt_fFP1_1_30_2 0
dt_fFP1_1_30_12 0
dt_fFP1_1_30_25 0
dt_fFP1_1_30_9 0
dt_fFP1_1_30_76 0
dt_fFP1_1_155_28 0
dt_fFP1_1_155_19 0
dt_fFP1_1_155_10 0
dt_fFP1_1_155_27 0
dt_fFP1_1_155_11 0
dt_fFP1_1_155_2 0
dt_fFP1_1_155_12 0
dt_fFP1_1_155_25 0
dt_fFP1_1_155_9 0
dt_fFP1_1_155_76 0
dt_fFP1_1_207_28 0
dt_fFP1_1_207_19 0
dt_fFP1_1_207_10 0
dt_fFP1_1_207_27 0
dt_fFP1_1_207_11 0
dt_fFP1_1_207_2 0
dt_fFP1_1_207_12 0
dt_fFP1_1_207_25 0
dt_fFP1_1_207_9 0
dt_fFP1_1_207_76 0
dt_fFP1_1_196_28 0
dt_fFP1_1_196_19 0
dt_fFP1_1_196_10 0
dt_fFP1_1_196_27 0
dt_fFP1_1_196_11 0
dt_fFP1_1_196_2 0
dt_fFP1_1_196_12 0
dt_fFP1_1_196_25 0
dt_fFP1_1_196_9 0
dt_fFP1_1_196_76 0
dt_fFP1_1_110_28 0
dt_fFP1_1_110_19 0
dt_fFP1_1_110_10 0
dt_fFP1_1_110_27 0
dt_fFP1_1_110_11 0
dt_fFP1_1_110_2 0
dt_fFP1_1_110_12 0
dt_fFP1_1_110_25 0
dt_fFP1_1_110_9 0
dt_fFP1_1_110_76 0
dt_fFP1_1_140_28 0
dt_fFP1_1_140_19 0
dt_fFP1_1_140_10 0
dt_fFP1_1_140_27 0
dt_fFP1_1_140_11 0
dt_fFP1_1_140_2 0
dt_fFP1_1_140_12 0
dt_fFP1_1_140_25 0
dt_fFP1_1_140_9 0
dt_fFP1_1_140_76 0
dt_fFP1_1_25_28 0
dt_fFP1_1_25_19 0
dt_fFP1_1_25_10 0
dt_fFP1_1_25_27 0
dt_fFP1_1_25_11 0
dt_fFP1_1_25_2 0
dt_fFP1_1_25_12 0
dt_fFP1_1_25_25 0
dt_fFP1_1_25_9 0
dt_fFP1_1_25_76 0
dt_fFP2_1_172_28 0
dt_fFP2_1_172_19 0
dt_fFP2_1_172_10 0
dt_fFP2_1_172_27 0
dt_fFP2_1_172_11 0
dt_fFP2_1_172_2 0
dt_fFP2_1_172_12 0
dt_fFP2_1_172_25 0
dt_fFP2_1_172_9 0
dt_fFP2_1_172_76 0
dt_fFP2_1_62_28 0
dt_fFP2_1_62_19 0
dt_fFP2_1_62_10 0
dt_fFP2_1_62_27 0
dt_fFP2_1_62_11 0
dt_fFP2_1_62_2 0
dt_fFP2_1_62_12 0
dt_fFP2_1_62_25 0
dt_fFP2_1_62_9 0
dt_fFP2_1_62_76 0
dt_fFP2_1_206_28 0
dt_fFP2_1_206_19 0
dt_fFP2_1_206_10 0
dt_fFP2_1_206_27 0
dt_fFP2_1_206_11 0
dt_fFP2_1_206_2 0
dt_fFP2_1_206_12 0
dt_fFP2_1_206_25 0
dt_fFP2_1_206_9 0
dt_fFP2_1_206_76 0
dt_fFP2_1_210_28 0
dt_fFP2_1_210_19 0
dt_fFP2_1_210_10 0
dt_fFP2_1_210_27 0
dt_fFP2_1_210_11 0
dt_fFP2_1_210_2 0
dt_fFP2_1_210_12 0
dt_fFP2_1_210_25 0
dt_fFP2_1_210_9 0
dt_fFP2_1_210_76 0
dt_fFP2_1_33_28 0
dt_fFP2_1_33_19 0
dt_fFP2_1_33_10 0
dt_fFP2_1_33_27 0
dt_fFP2_1_33_11 0
dt_fFP2_1_33_2 0
dt_fFP2_1_33_12 0
dt_fFP2_1_33_25 0
dt_fFP2_1_33_9 0
dt_fFP2_1_33_76 0
dt_fFP2_1_153_28 0
dt_fFP2_1_153_19 0
dt_fFP2_1_153_10 0
dt_fFP2_1_153_27 0
dt_fFP2_1_153_11 0
dt_fFP2_1_153_2 0
dt_fFP2_1_153_12 0
dt_fFP2_1_153_25 0
dt_fFP2_1_153_9 0
dt_fFP2_1_153_76 0
dt_fFP2_1_102_28 0
dt_fFP2_1_102_19 0
dt_fFP2_1_102_10 0
dt_fFP2_1_102_27 0
dt_fFP2_1_102_11 0
dt_fFP2_1_102_2 0
dt_fFP2_1_102_12 0
dt_fFP2_1_102_25 0
dt_fFP2_1_102_9 0
dt_fFP2_1_102_76 0
dt_fFP2_1_151_28 0
dt_fFP2_1_151_19 0
dt_fFP2_1_151_10 0
dt_fFP2_1_151_27 0
dt_fFP2_1_151_11 0
dt_fFP2_1_151_2 0
dt_fFP2_1_151_12 0
dt_fFP2_1_151_25 0
dt_fFP2_1_151_9 0
dt_fFP2_1_151_76 0
dt_fFP2_1_4_28 0
dt_fFP2_1_4_19 0
dt_fFP2_1_4_10 0
dt_fFP2_1_4_27 0
dt_fFP2_1_4_11 0
dt_fFP2_1_4_2 0
dt_fFP2_1_4_12 0
dt_fFP2_1_4_25 0
dt_fFP2_1_4_9 0
dt_fFP2_1_4_76 0
dt_fFP2_1_162_28 0
dt_fFP2_1_162_19 0
dt_fFP2_1_162_10 0
dt_fFP2_1_162_27 0
dt_fFP2_1_162_11 0
dt_fFP2_1_162_2 0
dt_fFP2_1_162_12 0
dt_fFP2_1_162_25 0
dt_fFP2_1_162_9 0
dt_fFP2_1_162_76 0
dt_fFP2_1_53_28 0
dt_fFP2_1_53_19 0
dt_fFP2_1_53_10 0
dt_fFP2_1_53_27 0
dt_fFP2_1_53_11 0
dt_fFP2_1_53_2 0
dt_fFP2_1_53_12 0
dt_fFP2_1_53_25 0
dt_fFP2_1_53_9 0
dt_fFP2_1_53_76 0
dt_fFP2_1_5_28 0
dt_fFP2_1_5_19 0
dt_fFP2_1_5_10 0
dt_fFP2_1_5_27 0
dt_fFP2_1_5_11 0
dt_fFP2_1_5_2 0
dt_fFP2_1_5_12 0
dt_fFP2_1_5_25 0
dt_fFP2_1_5_9 0
dt_fFP2_1_5_76 0
dt_fFP2_1_6_28 0
dt_fFP2_1_6_19 0
dt_fFP2_1_6_10 0
dt_fFP2_1_6_27 0
dt_fFP2_1_6_11 0
dt_fFP2_1_6_2 0
dt_fFP2_1_6_12 0
dt_fFP2_1_6_25 0
dt_fFP2_1_6_9 0
dt_fFP2_1_6_76 0
dt_fFP2_1_222_28 0
dt_fFP2_1_222_19 0
dt_fFP2_1_222_10 0
dt_fFP2_1_222_27 0
dt_fFP2_1_222_11 0
dt_fFP2_1_222_2 0
dt_fFP2_1_222_12 0
dt_fFP2_1_222_25 0
dt_fFP2_1_222_9 0
dt_fFP2_1_222_76 0
dt_fFP2_1_215_28 0
dt_fFP2_1_215_19 0
dt_fFP2_1_215_10 0
dt_fFP2_1_215_27 0
dt_fFP2_1_215_11 0
dt_fFP2_1_215_2 0
dt_fFP2_1_215_12 0
dt_fFP2_1_215_25 0
dt_fFP2_1_215_9 0
dt_fFP2_1_215_76 0
dt_fFP2_1_165_28 0
dt_fFP2_1_165_19 0
dt_fFP2_1_165_10 0
dt_fFP2_1_165_27 0
dt_fFP2_1_165_11 0
dt_fFP2_1_165_2 0
dt_fFP2_1_165_12 0
dt_fFP2_1_165_25 0
dt_fFP2_1_165_9 0
dt_fFP2_1_165_76 0
dt_fFP2_1_30_28 0
dt_fFP2_1_30_19 0
dt_fFP2_1_30_10 0
dt_fFP2_1_30_27 0
dt_fFP2_1_30_11 0
dt_fFP2_1_30_2 0
dt_fFP2_1_30_12 0
dt_fFP2_1_30_25 0
dt_fFP2_1_30_9 0
dt_fFP2_1_30_76 0
dt_fFP2_1_155_28 0
dt_fFP2_1_155_19 0
dt_fFP2_1_155_10 0
dt_fFP2_1_155_27 0
dt_fFP2_1_155_11 0
dt_fFP2_1_155_2 0
dt_fFP2_1_155_12 0
dt_fFP2_1_155_25 0
dt_fFP2_1_155_9 0
dt_fFP2_1_155_76 0
dt_fFP2_1_207_28 0
dt_fFP2_1_207_19 0
dt_fFP2_1_207_10 0
dt_fFP2_1_207_27 0
dt_fFP2_1_207_11 0
dt_fFP2_1_207_2 0
dt_fFP2_1_207_12 0
dt_fFP2_1_207_25 0
dt_fFP2_1_207_9 0
dt_fFP2_1_207_76 0
dt_fFP2_1_196_28 0
dt_fFP2_1_196_19 0
dt_fFP2_1_196_10 0
dt_fFP2_1_196_27 0
dt_fFP2_1_196_11 0
dt_fFP2_1_196_2 0
dt_fFP2_1_196_12 0
dt_fFP2_1_196_25 0
dt_fFP2_1_196_9 0
dt_fFP2_1_196_76 0
dt_fFP2_1_110_28 0
dt_fFP2_1_110_19 0
dt_fFP2_1_110_10 0
dt_fFP2_1_110_27 0
dt_fFP2_1_110_11 0
dt_fFP2_1_110_2 0
dt_fFP2_1_110_12 0
dt_fFP2_1_110_25 0
dt_fFP2_1_110_9 0
dt_fFP2_1_110_76 0
dt_fFP2_1_140_28 0
dt_fFP2_1_140_19 0
dt_fFP2_1_140_10 0
dt_fFP2_1_140_27 0
dt_fFP2_1_140_11 0
dt_fFP2_1_140_2 0
dt_fFP2_1_140_12 0
dt_fFP2_1_140_25 0
dt_fFP2_1_140_9 0
dt_fFP2_1_140_76 0
dt_fFP2_1_25_28 0
dt_fFP2_1_25_19 0
dt_fFP2_1_25_10 0
dt_fFP2_1_25_27 0
dt_fFP2_1_25_11 0
dt_fFP2_1_25_2 0
dt_fFP2_1_25_12 0
dt_fFP2_1_25_25 0
dt_fFP2_1_25_9 0
dt_fFP2_1_25_76 0
